data/lp_files/q3/104_9.lp
\ Model foo
\ LP format - for model browsing. Use MPS format to capture full model detail.
Minimize
  z
Subject To
 allocateEach[1]: x[1,1] + x[2,1] + x[3,1] + x[4,1] + x[5,1] + x[6,1] = 1
 allocateEach[2]: x[1,2] + x[2,2] + x[3,2] + x[4,2] + x[5,2] + x[6,2] = 1
 allocateEach[3]: x[1,3] + x[2,3] + x[3,3] + x[4,3] + x[5,3] + x[6,3] = 1
 allocateEach[4]: x[1,4] + x[2,4] + x[3,4] + x[4,4] + x[5,4] + x[6,4] = 1
 allocateAllCash: cashProportion[1] + cashProportion[2] + cashProportion[3]
   + cashProportion[4] + cashProportion[5] + cashProportion[6] = 1
 findWorstP[1,2]: z + 0.235476958579603 cashProportion[1]
   - 0.235476958579603 cashProportion[2] + 0.1238844279087291 x[1,1]
   + 0.2253279016648221 x[1,2] + 0.2305790378411472 x[1,3]
   + 0.1847316740056985 x[1,4] - 0.1238844279087291 x[2,1]
   - 0.2253279016648221 x[2,2] - 0.2305790378411472 x[2,3]
   - 0.1847316740056985 x[2,4] >= 0
 findWorstP[1,3]: z + 0.235476958579603 cashProportion[1]
   - 0.235476958579603 cashProportion[3] + 0.1238844279087291 x[1,1]
   + 0.2253279016648221 x[1,2] + 0.2305790378411472 x[1,3]
   + 0.1847316740056985 x[1,4] - 0.1238844279087291 x[3,1]
   - 0.2253279016648221 x[3,2] - 0.2305790378411472 x[3,3]
   - 0.1847316740056985 x[3,4] >= 0
 findWorstP[1,4]: z + 0.235476958579603 cashProportion[1]
   - 0.235476958579603 cashProportion[4] + 0.1238844279087291 x[1,1]
   + 0.2253279016648221 x[1,2] + 0.2305790378411472 x[1,3]
   + 0.1847316740056985 x[1,4] - 0.1238844279087291 x[4,1]
   - 0.2253279016648221 x[4,2] - 0.2305790378411472 x[4,3]
   - 0.1847316740056985 x[4,4] >= 0
 findWorstP[1,5]: z + 0.235476958579603 cashProportion[1]
   - 0.235476958579603 cashProportion[5] + 0.1238844279087291 x[1,1]
   + 0.2253279016648221 x[1,2] + 0.2305790378411472 x[1,3]
   + 0.1847316740056985 x[1,4] - 0.1238844279087291 x[5,1]
   - 0.2253279016648221 x[5,2] - 0.2305790378411472 x[5,3]
   - 0.1847316740056985 x[5,4] >= 0
 findWorstP[1,6]: z + 0.235476958579603 cashProportion[1]
   - 0.235476958579603 cashProportion[6] + 0.1238844279087291 x[1,1]
   + 0.2253279016648221 x[1,2] + 0.2305790378411472 x[1,3]
   + 0.1847316740056985 x[1,4] - 0.1238844279087291 x[6,1]
   - 0.2253279016648221 x[6,2] - 0.2305790378411472 x[6,3]
   - 0.1847316740056985 x[6,4] >= 0
 findWorstP[2,1]: z - 0.2941176470588235 cashProportion[1]
   + 0.2941176470588235 cashProportion[2] - 0.2595 x[1,1]
   - 0.1962941176470588 x[1,2] - 0.1946470588235294 x[1,3]
   - 0.0554411764705882 x[1,4] + 0.2595 x[2,1] + 0.1962941176470588 x[2,2]
   + 0.1946470588235294 x[2,3] + 0.0554411764705882 x[2,4] >= 0
 findWorstP[2,3]: z + 0.2941176470588235 cashProportion[2]
   - 0.2941176470588235 cashProportion[3] + 0.2595 x[2,1]
   + 0.1962941176470588 x[2,2] + 0.1946470588235294 x[2,3]
   + 0.0554411764705882 x[2,4] - 0.2595 x[3,1] - 0.1962941176470588 x[3,2]
   - 0.1946470588235294 x[3,3] - 0.0554411764705882 x[3,4] >= 0
 findWorstP[2,4]: z + 0.2941176470588235 cashProportion[2]
   - 0.2941176470588235 cashProportion[4] + 0.2595 x[2,1]
   + 0.1962941176470588 x[2,2] + 0.1946470588235294 x[2,3]
   + 0.0554411764705882 x[2,4] - 0.2595 x[4,1] - 0.1962941176470588 x[4,2]
   - 0.1946470588235294 x[4,3] - 0.0554411764705882 x[4,4] >= 0
 findWorstP[2,5]: z + 0.2941176470588235 cashProportion[2]
   - 0.2941176470588235 cashProportion[5] + 0.2595 x[2,1]
   + 0.1962941176470588 x[2,2] + 0.1946470588235294 x[2,3]
   + 0.0554411764705882 x[2,4] - 0.2595 x[5,1] - 0.1962941176470588 x[5,2]
   - 0.1946470588235294 x[5,3] - 0.0554411764705882 x[5,4] >= 0
 findWorstP[2,6]: z + 0.2941176470588235 cashProportion[2]
   - 0.2941176470588235 cashProportion[6] + 0.2595 x[2,1]
   + 0.1962941176470588 x[2,2] + 0.1946470588235294 x[2,3]
   + 0.0554411764705882 x[2,4] - 0.2595 x[6,1] - 0.1962941176470588 x[6,2]
   - 0.1946470588235294 x[6,3] - 0.0554411764705882 x[6,4] >= 0
 findWorstP[3,1]: z - 0.277592715967133 cashProportion[1]
   + 0.277592715967133 cashProportion[3] - 0.2062791472351765 x[1,1]
   - 0.1440983788585387 x[1,2] - 0.133133466577837 x[1,3]
   - 0.2388962913613147 x[1,4] + 0.2062791472351765 x[3,1]
   + 0.1440983788585387 x[3,2] + 0.133133466577837 x[3,3]
   + 0.2388962913613147 x[3,4] >= 0
 findWorstP[3,2]: z - 0.277592715967133 cashProportion[2]
   + 0.277592715967133 cashProportion[3] - 0.2062791472351765 x[2,1]
   - 0.1440983788585387 x[2,2] - 0.133133466577837 x[2,3]
   - 0.2388962913613147 x[2,4] + 0.2062791472351765 x[3,1]
   + 0.1440983788585387 x[3,2] + 0.133133466577837 x[3,3]
   + 0.2388962913613147 x[3,4] >= 0
 findWorstP[3,4]: z + 0.277592715967133 cashProportion[3]
   - 0.277592715967133 cashProportion[4] + 0.2062791472351765 x[3,1]
   + 0.1440983788585387 x[3,2] + 0.133133466577837 x[3,3]
   + 0.2388962913613147 x[3,4] - 0.2062791472351765 x[4,1]
   - 0.1440983788585387 x[4,2] - 0.133133466577837 x[4,3]
   - 0.2388962913613147 x[4,4] >= 0
 findWorstP[3,5]: z + 0.277592715967133 cashProportion[3]
   - 0.277592715967133 cashProportion[5] + 0.2062791472351765 x[3,1]
   + 0.1440983788585387 x[3,2] + 0.133133466577837 x[3,3]
   + 0.2388962913613147 x[3,4] - 0.2062791472351765 x[5,1]
   - 0.1440983788585387 x[5,2] - 0.133133466577837 x[5,3]
   - 0.2388962913613147 x[5,4] >= 0
 findWorstP[3,6]: z + 0.277592715967133 cashProportion[3]
   - 0.277592715967133 cashProportion[6] + 0.2062791472351765 x[3,1]
   + 0.1440983788585387 x[3,2] + 0.133133466577837 x[3,3]
   + 0.2388962913613147 x[3,4] - 0.2062791472351765 x[6,1]
   - 0.1440983788585387 x[6,2] - 0.133133466577837 x[6,3]
   - 0.2388962913613147 x[6,4] >= 0
 findWorstP[4,1]: z - 0.3851190017715475 cashProportion[1]
   + 0.3851190017715475 cashProportion[4] - 0.00261880921204652 x[1,1]
   - 0.2950011553570053 x[1,2] - 0.1075637371947932 x[1,3]
   - 0.2096972964646075 x[1,4] + 0.00261880921204652 x[4,1]
   + 0.2950011553570053 x[4,2] + 0.1075637371947932 x[4,3]
   + 0.2096972964646075 x[4,4] >= 0
 findWorstP[4,2]: z - 0.3851190017715475 cashProportion[2]
   + 0.3851190017715475 cashProportion[4] - 0.00261880921204652 x[2,1]
   - 0.2950011553570053 x[2,2] - 0.1075637371947932 x[2,3]
   - 0.2096972964646075 x[2,4] + 0.00261880921204652 x[4,1]
   + 0.2950011553570053 x[4,2] + 0.1075637371947932 x[4,3]
   + 0.2096972964646075 x[4,4] >= 0
 findWorstP[4,3]: z - 0.3851190017715475 cashProportion[3]
   + 0.3851190017715475 cashProportion[4] - 0.00261880921204652 x[3,1]
   - 0.2950011553570053 x[3,2] - 0.1075637371947932 x[3,3]
   - 0.2096972964646075 x[3,4] + 0.00261880921204652 x[4,1]
   + 0.2950011553570053 x[4,2] + 0.1075637371947932 x[4,3]
   + 0.2096972964646075 x[4,4] >= 0
 findWorstP[4,5]: z + 0.3851190017715475 cashProportion[4]
   - 0.3851190017715475 cashProportion[5] + 0.00261880921204652 x[4,1]
   + 0.2950011553570053 x[4,2] + 0.1075637371947932 x[4,3]
   + 0.2096972964646075 x[4,4] - 0.00261880921204652 x[5,1]
   - 0.2950011553570053 x[5,2] - 0.1075637371947932 x[5,3]
   - 0.2096972964646075 x[5,4] >= 0
 findWorstP[4,6]: z + 0.3851190017715475 cashProportion[4]
   - 0.3851190017715475 cashProportion[6] + 0.00261880921204652 x[4,1]
   + 0.2950011553570053 x[4,2] + 0.1075637371947932 x[4,3]
   + 0.2096972964646075 x[4,4] - 0.00261880921204652 x[6,1]
   - 0.2950011553570053 x[6,2] - 0.1075637371947932 x[6,3]
   - 0.2096972964646075 x[6,4] >= 0
 findWorstP[5,1]: z - 0.2702702702702703 cashProportion[1]
   + 0.2702702702702703 cashProportion[5] - 0.050027027027027 x[1,1]
   - 0.2365945945945946 x[1,2] - 0.1751891891891892 x[1,3]
   - 0.2679189189189189 x[1,4] + 0.050027027027027 x[5,1]
   + 0.2365945945945946 x[5,2] + 0.1751891891891892 x[5,3]
   + 0.2679189189189189 x[5,4] >= 0
 findWorstP[5,2]: z - 0.2702702702702703 cashProportion[2]
   + 0.2702702702702703 cashProportion[5] - 0.050027027027027 x[2,1]
   - 0.2365945945945946 x[2,2] - 0.1751891891891892 x[2,3]
   - 0.2679189189189189 x[2,4] + 0.050027027027027 x[5,1]
   + 0.2365945945945946 x[5,2] + 0.1751891891891892 x[5,3]
   + 0.2679189189189189 x[5,4] >= 0
 findWorstP[5,3]: z - 0.2702702702702703 cashProportion[3]
   + 0.2702702702702703 cashProportion[5] - 0.050027027027027 x[3,1]
   - 0.2365945945945946 x[3,2] - 0.1751891891891892 x[3,3]
   - 0.2679189189189189 x[3,4] + 0.050027027027027 x[5,1]
   + 0.2365945945945946 x[5,2] + 0.1751891891891892 x[5,3]
   + 0.2679189189189189 x[5,4] >= 0
 findWorstP[5,4]: z - 0.2702702702702703 cashProportion[4]
   + 0.2702702702702703 cashProportion[5] - 0.050027027027027 x[4,1]
   - 0.2365945945945946 x[4,2] - 0.1751891891891892 x[4,3]
   - 0.2679189189189189 x[4,4] + 0.050027027027027 x[5,1]
   + 0.2365945945945946 x[5,2] + 0.1751891891891892 x[5,3]
   + 0.2679189189189189 x[5,4] >= 0
 findWorstP[5,6]: z + 0.2702702702702703 cashProportion[5]
   - 0.2702702702702703 cashProportion[6] + 0.050027027027027 x[5,1]
   + 0.2365945945945946 x[5,2] + 0.1751891891891892 x[5,3]
   + 0.2679189189189189 x[5,4] - 0.050027027027027 x[6,1]
   - 0.2365945945945946 x[6,2] - 0.1751891891891892 x[6,3]
   - 0.2679189189189189 x[6,4] >= 0
 findWorstP[6,1]: z - 0.2669656682150676 cashProportion[1]
   + 0.2669656682150676 cashProportion[6] - 0.2132254792033745 x[1,1]
   - 0.2346094292274014 x[1,2] - 0.1978749532810081 x[1,3]
   - 0.0873244700731486 x[1,4] + 0.2132254792033745 x[6,1]
   + 0.2346094292274014 x[6,2] + 0.1978749532810081 x[6,3]
   + 0.0873244700731486 x[6,4] >= 0
 findWorstP[6,2]: z - 0.2669656682150676 cashProportion[2]
   + 0.2669656682150676 cashProportion[6] - 0.2132254792033745 x[2,1]
   - 0.2346094292274014 x[2,2] - 0.1978749532810081 x[2,3]
   - 0.0873244700731486 x[2,4] + 0.2132254792033745 x[6,1]
   + 0.2346094292274014 x[6,2] + 0.1978749532810081 x[6,3]
   + 0.0873244700731486 x[6,4] >= 0
 findWorstP[6,3]: z - 0.2669656682150676 cashProportion[3]
   + 0.2669656682150676 cashProportion[6] - 0.2132254792033745 x[3,1]
   - 0.2346094292274014 x[3,2] - 0.1978749532810081 x[3,3]
   - 0.0873244700731486 x[3,4] + 0.2132254792033745 x[6,1]
   + 0.2346094292274014 x[6,2] + 0.1978749532810081 x[6,3]
   + 0.0873244700731486 x[6,4] >= 0
 findWorstP[6,4]: z - 0.2669656682150676 cashProportion[4]
   + 0.2669656682150676 cashProportion[6] - 0.2132254792033745 x[4,1]
   - 0.2346094292274014 x[4,2] - 0.1978749532810081 x[4,3]
   - 0.0873244700731486 x[4,4] + 0.2132254792033745 x[6,1]
   + 0.2346094292274014 x[6,2] + 0.1978749532810081 x[6,3]
   + 0.0873244700731486 x[6,4] >= 0
 findWorstP[6,5]: z - 0.2669656682150676 cashProportion[5]
   + 0.2669656682150676 cashProportion[6] - 0.2132254792033745 x[5,1]
   - 0.2346094292274014 x[5,2] - 0.1978749532810081 x[5,3]
   - 0.0873244700731486 x[5,4] + 0.2132254792033745 x[6,1]
   + 0.2346094292274014 x[6,2] + 0.1978749532810081 x[6,3]
   + 0.0873244700731486 x[6,4] >= 0
Bounds
 z <= 1
 -infinity <= cashProportion[1] <= 1
 -infinity <= cashProportion[2] <= 1
 -infinity <= cashProportion[3] <= 1
 -infinity <= cashProportion[4] <= 1
 -infinity <= cashProportion[5] <= 1
 -infinity <= cashProportion[6] <= 1
Binaries
 x[1,1] x[1,2] x[1,3] x[1,4] x[2,1] x[2,2] x[2,3] x[2,4] x[3,1] x[3,2]
 x[3,3] x[3,4] x[4,1] x[4,2] x[4,3] x[4,4] x[5,1] x[5,2] x[5,3] x[5,4]
 x[6,1] x[6,2] x[6,3] x[6,4]
End
