data/mps_files/pEFS/104_9.mps
NAME foo
ROWS
 N  OBJ
 E  allocateEach[1]
 E  allocateEach[2]
 E  allocateEach[3]
 E  allocateEach[4]
 E  allocateAllCash
 G  findWorstP[1,2]
 G  findWorstP[1,3]
 G  findWorstP[1,4]
 G  findWorstP[1,5]
 G  findWorstP[1,6]
 G  findWorstP[2,1]
 G  findWorstP[2,3]
 G  findWorstP[2,4]
 G  findWorstP[2,5]
 G  findWorstP[2,6]
 G  findWorstP[3,1]
 G  findWorstP[3,2]
 G  findWorstP[3,4]
 G  findWorstP[3,5]
 G  findWorstP[3,6]
 G  findWorstP[4,1]
 G  findWorstP[4,2]
 G  findWorstP[4,3]
 G  findWorstP[4,5]
 G  findWorstP[4,6]
 G  findWorstP[5,1]
 G  findWorstP[5,2]
 G  findWorstP[5,3]
 G  findWorstP[5,4]
 G  findWorstP[5,6]
 G  findWorstP[6,1]
 G  findWorstP[6,2]
 G  findWorstP[6,3]
 G  findWorstP[6,4]
 G  findWorstP[6,5]
COLUMNS
    z         OBJ       1
    z         findWorstP[1,2]  1
    z         findWorstP[1,3]  1
    z         findWorstP[1,4]  1
    z         findWorstP[1,5]  1
    z         findWorstP[1,6]  1
    z         findWorstP[2,1]  1
    z         findWorstP[2,3]  1
    z         findWorstP[2,4]  1
    z         findWorstP[2,5]  1
    z         findWorstP[2,6]  1
    z         findWorstP[3,1]  1
    z         findWorstP[3,2]  1
    z         findWorstP[3,4]  1
    z         findWorstP[3,5]  1
    z         findWorstP[3,6]  1
    z         findWorstP[4,1]  1
    z         findWorstP[4,2]  1
    z         findWorstP[4,3]  1
    z         findWorstP[4,5]  1
    z         findWorstP[4,6]  1
    z         findWorstP[5,1]  1
    z         findWorstP[5,2]  1
    z         findWorstP[5,3]  1
    z         findWorstP[5,4]  1
    z         findWorstP[5,6]  1
    z         findWorstP[6,1]  1
    z         findWorstP[6,2]  1
    z         findWorstP[6,3]  1
    z         findWorstP[6,4]  1
    z         findWorstP[6,5]  1
    cashProportion[1]  allocateAllCash  1
    cashProportion[1]  findWorstP[1,2]  2.3547695857960302e-01
    cashProportion[1]  findWorstP[1,3]  2.3547695857960302e-01
    cashProportion[1]  findWorstP[1,4]  2.3547695857960302e-01
    cashProportion[1]  findWorstP[1,5]  2.3547695857960302e-01
    cashProportion[1]  findWorstP[1,6]  2.3547695857960302e-01
    cashProportion[1]  findWorstP[2,1]  -2.9411764705882354e-01
    cashProportion[1]  findWorstP[3,1]  -2.7759271596713303e-01
    cashProportion[1]  findWorstP[4,1]  -3.8511900177154745e-01
    cashProportion[1]  findWorstP[5,1]  -2.7027027027027029e-01
    cashProportion[1]  findWorstP[6,1]  -2.6696566821506762e-01
    cashProportion[2]  allocateAllCash  1
    cashProportion[2]  findWorstP[1,2]  -2.3547695857960302e-01
    cashProportion[2]  findWorstP[2,1]  2.9411764705882354e-01
    cashProportion[2]  findWorstP[2,3]  2.9411764705882354e-01
    cashProportion[2]  findWorstP[2,4]  2.9411764705882354e-01
    cashProportion[2]  findWorstP[2,5]  2.9411764705882354e-01
    cashProportion[2]  findWorstP[2,6]  2.9411764705882354e-01
    cashProportion[2]  findWorstP[3,2]  -2.7759271596713303e-01
    cashProportion[2]  findWorstP[4,2]  -3.8511900177154745e-01
    cashProportion[2]  findWorstP[5,2]  -2.7027027027027029e-01
    cashProportion[2]  findWorstP[6,2]  -2.6696566821506762e-01
    cashProportion[3]  allocateAllCash  1
    cashProportion[3]  findWorstP[1,3]  -2.3547695857960302e-01
    cashProportion[3]  findWorstP[2,3]  -2.9411764705882354e-01
    cashProportion[3]  findWorstP[3,1]  2.7759271596713303e-01
    cashProportion[3]  findWorstP[3,2]  2.7759271596713303e-01
    cashProportion[3]  findWorstP[3,4]  2.7759271596713303e-01
    cashProportion[3]  findWorstP[3,5]  2.7759271596713303e-01
    cashProportion[3]  findWorstP[3,6]  2.7759271596713303e-01
    cashProportion[3]  findWorstP[4,3]  -3.8511900177154745e-01
    cashProportion[3]  findWorstP[5,3]  -2.7027027027027029e-01
    cashProportion[3]  findWorstP[6,3]  -2.6696566821506762e-01
    cashProportion[4]  allocateAllCash  1
    cashProportion[4]  findWorstP[1,4]  -2.3547695857960302e-01
    cashProportion[4]  findWorstP[2,4]  -2.9411764705882354e-01
    cashProportion[4]  findWorstP[3,4]  -2.7759271596713303e-01
    cashProportion[4]  findWorstP[4,1]  3.8511900177154745e-01
    cashProportion[4]  findWorstP[4,2]  3.8511900177154745e-01
    cashProportion[4]  findWorstP[4,3]  3.8511900177154745e-01
    cashProportion[4]  findWorstP[4,5]  3.8511900177154745e-01
    cashProportion[4]  findWorstP[4,6]  3.8511900177154745e-01
    cashProportion[4]  findWorstP[5,4]  -2.7027027027027029e-01
    cashProportion[4]  findWorstP[6,4]  -2.6696566821506762e-01
    cashProportion[5]  allocateAllCash  1
    cashProportion[5]  findWorstP[1,5]  -2.3547695857960302e-01
    cashProportion[5]  findWorstP[2,5]  -2.9411764705882354e-01
    cashProportion[5]  findWorstP[3,5]  -2.7759271596713303e-01
    cashProportion[5]  findWorstP[4,5]  -3.8511900177154745e-01
    cashProportion[5]  findWorstP[5,1]  2.7027027027027029e-01
    cashProportion[5]  findWorstP[5,2]  2.7027027027027029e-01
    cashProportion[5]  findWorstP[5,3]  2.7027027027027029e-01
    cashProportion[5]  findWorstP[5,4]  2.7027027027027029e-01
    cashProportion[5]  findWorstP[5,6]  2.7027027027027029e-01
    cashProportion[5]  findWorstP[6,5]  -2.6696566821506762e-01
    cashProportion[6]  allocateAllCash  1
    cashProportion[6]  findWorstP[1,6]  -2.3547695857960302e-01
    cashProportion[6]  findWorstP[2,6]  -2.9411764705882354e-01
    cashProportion[6]  findWorstP[3,6]  -2.7759271596713303e-01
    cashProportion[6]  findWorstP[4,6]  -3.8511900177154745e-01
    cashProportion[6]  findWorstP[5,6]  -2.7027027027027029e-01
    cashProportion[6]  findWorstP[6,1]  2.6696566821506762e-01
    cashProportion[6]  findWorstP[6,2]  2.6696566821506762e-01
    cashProportion[6]  findWorstP[6,3]  2.6696566821506762e-01
    cashProportion[6]  findWorstP[6,4]  2.6696566821506762e-01
    cashProportion[6]  findWorstP[6,5]  2.6696566821506762e-01
    MARKER    'MARKER'                 'INTORG'
    x[1,1]    allocateEach[1]  1
    x[1,1]    findWorstP[1,2]  1.2388442790872913e-01
    x[1,1]    findWorstP[1,3]  1.2388442790872913e-01
    x[1,1]    findWorstP[1,4]  1.2388442790872913e-01
    x[1,1]    findWorstP[1,5]  1.2388442790872913e-01
    x[1,1]    findWorstP[1,6]  1.2388442790872913e-01
    x[1,1]    findWorstP[2,1]  -2.5949999999999995e-01
    x[1,1]    findWorstP[3,1]  -2.0627914723517651e-01
    x[1,1]    findWorstP[4,1]  -2.6188092120465220e-03
    x[1,1]    findWorstP[5,1]  -5.0027027027027014e-02
    x[1,1]    findWorstP[6,1]  -2.1322547920337445e-01
    x[1,2]    allocateEach[2]  1
    x[1,2]    findWorstP[1,2]  2.2532790166482206e-01
    x[1,2]    findWorstP[1,3]  2.2532790166482206e-01
    x[1,2]    findWorstP[1,4]  2.2532790166482206e-01
    x[1,2]    findWorstP[1,5]  2.2532790166482206e-01
    x[1,2]    findWorstP[1,6]  2.2532790166482206e-01
    x[1,2]    findWorstP[2,1]  -1.9629411764705879e-01
    x[1,2]    findWorstP[3,1]  -1.4409837885853874e-01
    x[1,2]    findWorstP[4,1]  -2.9500115535700527e-01
    x[1,2]    findWorstP[5,1]  -2.3659459459459456e-01
    x[1,2]    findWorstP[6,1]  -2.3460942922740138e-01
    x[1,3]    allocateEach[3]  1
    x[1,3]    findWorstP[1,2]  2.3057903784114722e-01
    x[1,3]    findWorstP[1,3]  2.3057903784114722e-01
    x[1,3]    findWorstP[1,4]  2.3057903784114722e-01
    x[1,3]    findWorstP[1,5]  2.3057903784114722e-01
    x[1,3]    findWorstP[1,6]  2.3057903784114722e-01
    x[1,3]    findWorstP[2,1]  -1.9464705882352940e-01
    x[1,3]    findWorstP[3,1]  -1.3313346657783698e-01
    x[1,3]    findWorstP[4,1]  -1.0756373719479317e-01
    x[1,3]    findWorstP[5,1]  -1.7518918918918916e-01
    x[1,3]    findWorstP[6,1]  -1.9787495328100807e-01
    x[1,4]    allocateEach[4]  1
    x[1,4]    findWorstP[1,2]  1.8473167400569851e-01
    x[1,4]    findWorstP[1,3]  1.8473167400569851e-01
    x[1,4]    findWorstP[1,4]  1.8473167400569851e-01
    x[1,4]    findWorstP[1,5]  1.8473167400569851e-01
    x[1,4]    findWorstP[1,6]  1.8473167400569851e-01
    x[1,4]    findWorstP[2,1]  -5.5441176470588230e-02
    x[1,4]    findWorstP[3,1]  -2.3889629136131466e-01
    x[1,4]    findWorstP[4,1]  -2.0969729646460752e-01
    x[1,4]    findWorstP[5,1]  -2.6791891891891889e-01
    x[1,4]    findWorstP[6,1]  -0.0873244700731486
    x[2,1]    allocateEach[1]  1
    x[2,1]    findWorstP[1,2]  -1.2388442790872913e-01
    x[2,1]    findWorstP[2,1]  2.5949999999999995e-01
    x[2,1]    findWorstP[2,3]  2.5949999999999995e-01
    x[2,1]    findWorstP[2,4]  2.5949999999999995e-01
    x[2,1]    findWorstP[2,5]  2.5949999999999995e-01
    x[2,1]    findWorstP[2,6]  2.5949999999999995e-01
    x[2,1]    findWorstP[3,2]  -2.0627914723517651e-01
    x[2,1]    findWorstP[4,2]  -2.6188092120465220e-03
    x[2,1]    findWorstP[5,2]  -5.0027027027027014e-02
    x[2,1]    findWorstP[6,2]  -2.1322547920337445e-01
    x[2,2]    allocateEach[2]  1
    x[2,2]    findWorstP[1,2]  -2.2532790166482206e-01
    x[2,2]    findWorstP[2,1]  1.9629411764705879e-01
    x[2,2]    findWorstP[2,3]  1.9629411764705879e-01
    x[2,2]    findWorstP[2,4]  1.9629411764705879e-01
    x[2,2]    findWorstP[2,5]  1.9629411764705879e-01
    x[2,2]    findWorstP[2,6]  1.9629411764705879e-01
    x[2,2]    findWorstP[3,2]  -1.4409837885853874e-01
    x[2,2]    findWorstP[4,2]  -2.9500115535700527e-01
    x[2,2]    findWorstP[5,2]  -2.3659459459459456e-01
    x[2,2]    findWorstP[6,2]  -2.3460942922740138e-01
    x[2,3]    allocateEach[3]  1
    x[2,3]    findWorstP[1,2]  -2.3057903784114722e-01
    x[2,3]    findWorstP[2,1]  1.9464705882352940e-01
    x[2,3]    findWorstP[2,3]  1.9464705882352940e-01
    x[2,3]    findWorstP[2,4]  1.9464705882352940e-01
    x[2,3]    findWorstP[2,5]  1.9464705882352940e-01
    x[2,3]    findWorstP[2,6]  1.9464705882352940e-01
    x[2,3]    findWorstP[3,2]  -1.3313346657783698e-01
    x[2,3]    findWorstP[4,2]  -1.0756373719479317e-01
    x[2,3]    findWorstP[5,2]  -1.7518918918918916e-01
    x[2,3]    findWorstP[6,2]  -1.9787495328100807e-01
    x[2,4]    allocateEach[4]  1
    x[2,4]    findWorstP[1,2]  -1.8473167400569851e-01
    x[2,4]    findWorstP[2,1]  5.5441176470588230e-02
    x[2,4]    findWorstP[2,3]  5.5441176470588230e-02
    x[2,4]    findWorstP[2,4]  5.5441176470588230e-02
    x[2,4]    findWorstP[2,5]  5.5441176470588230e-02
    x[2,4]    findWorstP[2,6]  5.5441176470588230e-02
    x[2,4]    findWorstP[3,2]  -2.3889629136131466e-01
    x[2,4]    findWorstP[4,2]  -2.0969729646460752e-01
    x[2,4]    findWorstP[5,2]  -2.6791891891891889e-01
    x[2,4]    findWorstP[6,2]  -0.0873244700731486
    x[3,1]    allocateEach[1]  1
    x[3,1]    findWorstP[1,3]  -1.2388442790872913e-01
    x[3,1]    findWorstP[2,3]  -2.5949999999999995e-01
    x[3,1]    findWorstP[3,1]  2.0627914723517651e-01
    x[3,1]    findWorstP[3,2]  2.0627914723517651e-01
    x[3,1]    findWorstP[3,4]  2.0627914723517651e-01
    x[3,1]    findWorstP[3,5]  2.0627914723517651e-01
    x[3,1]    findWorstP[3,6]  2.0627914723517651e-01
    x[3,1]    findWorstP[4,3]  -2.6188092120465220e-03
    x[3,1]    findWorstP[5,3]  -5.0027027027027014e-02
    x[3,1]    findWorstP[6,3]  -2.1322547920337445e-01
    x[3,2]    allocateEach[2]  1
    x[3,2]    findWorstP[1,3]  -2.2532790166482206e-01
    x[3,2]    findWorstP[2,3]  -1.9629411764705879e-01
    x[3,2]    findWorstP[3,1]  1.4409837885853874e-01
    x[3,2]    findWorstP[3,2]  1.4409837885853874e-01
    x[3,2]    findWorstP[3,4]  1.4409837885853874e-01
    x[3,2]    findWorstP[3,5]  1.4409837885853874e-01
    x[3,2]    findWorstP[3,6]  1.4409837885853874e-01
    x[3,2]    findWorstP[4,3]  -2.9500115535700527e-01
    x[3,2]    findWorstP[5,3]  -2.3659459459459456e-01
    x[3,2]    findWorstP[6,3]  -2.3460942922740138e-01
    x[3,3]    allocateEach[3]  1
    x[3,3]    findWorstP[1,3]  -2.3057903784114722e-01
    x[3,3]    findWorstP[2,3]  -1.9464705882352940e-01
    x[3,3]    findWorstP[3,1]  1.3313346657783698e-01
    x[3,3]    findWorstP[3,2]  1.3313346657783698e-01
    x[3,3]    findWorstP[3,4]  1.3313346657783698e-01
    x[3,3]    findWorstP[3,5]  1.3313346657783698e-01
    x[3,3]    findWorstP[3,6]  1.3313346657783698e-01
    x[3,3]    findWorstP[4,3]  -1.0756373719479317e-01
    x[3,3]    findWorstP[5,3]  -1.7518918918918916e-01
    x[3,3]    findWorstP[6,3]  -1.9787495328100807e-01
    x[3,4]    allocateEach[4]  1
    x[3,4]    findWorstP[1,3]  -1.8473167400569851e-01
    x[3,4]    findWorstP[2,3]  -5.5441176470588230e-02
    x[3,4]    findWorstP[3,1]  2.3889629136131466e-01
    x[3,4]    findWorstP[3,2]  2.3889629136131466e-01
    x[3,4]    findWorstP[3,4]  2.3889629136131466e-01
    x[3,4]    findWorstP[3,5]  2.3889629136131466e-01
    x[3,4]    findWorstP[3,6]  2.3889629136131466e-01
    x[3,4]    findWorstP[4,3]  -2.0969729646460752e-01
    x[3,4]    findWorstP[5,3]  -2.6791891891891889e-01
    x[3,4]    findWorstP[6,3]  -0.0873244700731486
    x[4,1]    allocateEach[1]  1
    x[4,1]    findWorstP[1,4]  -1.2388442790872913e-01
    x[4,1]    findWorstP[2,4]  -2.5949999999999995e-01
    x[4,1]    findWorstP[3,4]  -2.0627914723517651e-01
    x[4,1]    findWorstP[4,1]  2.6188092120465220e-03
    x[4,1]    findWorstP[4,2]  2.6188092120465220e-03
    x[4,1]    findWorstP[4,3]  2.6188092120465220e-03
    x[4,1]    findWorstP[4,5]  2.6188092120465220e-03
    x[4,1]    findWorstP[4,6]  2.6188092120465220e-03
    x[4,1]    findWorstP[5,4]  -5.0027027027027014e-02
    x[4,1]    findWorstP[6,4]  -2.1322547920337445e-01
    x[4,2]    allocateEach[2]  1
    x[4,2]    findWorstP[1,4]  -2.2532790166482206e-01
    x[4,2]    findWorstP[2,4]  -1.9629411764705879e-01
    x[4,2]    findWorstP[3,4]  -1.4409837885853874e-01
    x[4,2]    findWorstP[4,1]  2.9500115535700527e-01
    x[4,2]    findWorstP[4,2]  2.9500115535700527e-01
    x[4,2]    findWorstP[4,3]  2.9500115535700527e-01
    x[4,2]    findWorstP[4,5]  2.9500115535700527e-01
    x[4,2]    findWorstP[4,6]  2.9500115535700527e-01
    x[4,2]    findWorstP[5,4]  -2.3659459459459456e-01
    x[4,2]    findWorstP[6,4]  -2.3460942922740138e-01
    x[4,3]    allocateEach[3]  1
    x[4,3]    findWorstP[1,4]  -2.3057903784114722e-01
    x[4,3]    findWorstP[2,4]  -1.9464705882352940e-01
    x[4,3]    findWorstP[3,4]  -1.3313346657783698e-01
    x[4,3]    findWorstP[4,1]  1.0756373719479317e-01
    x[4,3]    findWorstP[4,2]  1.0756373719479317e-01
    x[4,3]    findWorstP[4,3]  1.0756373719479317e-01
    x[4,3]    findWorstP[4,5]  1.0756373719479317e-01
    x[4,3]    findWorstP[4,6]  1.0756373719479317e-01
    x[4,3]    findWorstP[5,4]  -1.7518918918918916e-01
    x[4,3]    findWorstP[6,4]  -1.9787495328100807e-01
    x[4,4]    allocateEach[4]  1
    x[4,4]    findWorstP[1,4]  -1.8473167400569851e-01
    x[4,4]    findWorstP[2,4]  -5.5441176470588230e-02
    x[4,4]    findWorstP[3,4]  -2.3889629136131466e-01
    x[4,4]    findWorstP[4,1]  2.0969729646460752e-01
    x[4,4]    findWorstP[4,2]  2.0969729646460752e-01
    x[4,4]    findWorstP[4,3]  2.0969729646460752e-01
    x[4,4]    findWorstP[4,5]  2.0969729646460752e-01
    x[4,4]    findWorstP[4,6]  2.0969729646460752e-01
    x[4,4]    findWorstP[5,4]  -2.6791891891891889e-01
    x[4,4]    findWorstP[6,4]  -0.0873244700731486
    x[5,1]    allocateEach[1]  1
    x[5,1]    findWorstP[1,5]  -1.2388442790872913e-01
    x[5,1]    findWorstP[2,5]  -2.5949999999999995e-01
    x[5,1]    findWorstP[3,5]  -2.0627914723517651e-01
    x[5,1]    findWorstP[4,5]  -2.6188092120465220e-03
    x[5,1]    findWorstP[5,1]  5.0027027027027014e-02
    x[5,1]    findWorstP[5,2]  5.0027027027027014e-02
    x[5,1]    findWorstP[5,3]  5.0027027027027014e-02
    x[5,1]    findWorstP[5,4]  5.0027027027027014e-02
    x[5,1]    findWorstP[5,6]  5.0027027027027014e-02
    x[5,1]    findWorstP[6,5]  -2.1322547920337445e-01
    x[5,2]    allocateEach[2]  1
    x[5,2]    findWorstP[1,5]  -2.2532790166482206e-01
    x[5,2]    findWorstP[2,5]  -1.9629411764705879e-01
    x[5,2]    findWorstP[3,5]  -1.4409837885853874e-01
    x[5,2]    findWorstP[4,5]  -2.9500115535700527e-01
    x[5,2]    findWorstP[5,1]  2.3659459459459456e-01
    x[5,2]    findWorstP[5,2]  2.3659459459459456e-01
    x[5,2]    findWorstP[5,3]  2.3659459459459456e-01
    x[5,2]    findWorstP[5,4]  2.3659459459459456e-01
    x[5,2]    findWorstP[5,6]  2.3659459459459456e-01
    x[5,2]    findWorstP[6,5]  -2.3460942922740138e-01
    x[5,3]    allocateEach[3]  1
    x[5,3]    findWorstP[1,5]  -2.3057903784114722e-01
    x[5,3]    findWorstP[2,5]  -1.9464705882352940e-01
    x[5,3]    findWorstP[3,5]  -1.3313346657783698e-01
    x[5,3]    findWorstP[4,5]  -1.0756373719479317e-01
    x[5,3]    findWorstP[5,1]  1.7518918918918916e-01
    x[5,3]    findWorstP[5,2]  1.7518918918918916e-01
    x[5,3]    findWorstP[5,3]  1.7518918918918916e-01
    x[5,3]    findWorstP[5,4]  1.7518918918918916e-01
    x[5,3]    findWorstP[5,6]  1.7518918918918916e-01
    x[5,3]    findWorstP[6,5]  -1.9787495328100807e-01
    x[5,4]    allocateEach[4]  1
    x[5,4]    findWorstP[1,5]  -1.8473167400569851e-01
    x[5,4]    findWorstP[2,5]  -5.5441176470588230e-02
    x[5,4]    findWorstP[3,5]  -2.3889629136131466e-01
    x[5,4]    findWorstP[4,5]  -2.0969729646460752e-01
    x[5,4]    findWorstP[5,1]  2.6791891891891889e-01
    x[5,4]    findWorstP[5,2]  2.6791891891891889e-01
    x[5,4]    findWorstP[5,3]  2.6791891891891889e-01
    x[5,4]    findWorstP[5,4]  2.6791891891891889e-01
    x[5,4]    findWorstP[5,6]  2.6791891891891889e-01
    x[5,4]    findWorstP[6,5]  -0.0873244700731486
    x[6,1]    allocateEach[1]  1
    x[6,1]    findWorstP[1,6]  -1.2388442790872913e-01
    x[6,1]    findWorstP[2,6]  -2.5949999999999995e-01
    x[6,1]    findWorstP[3,6]  -2.0627914723517651e-01
    x[6,1]    findWorstP[4,6]  -2.6188092120465220e-03
    x[6,1]    findWorstP[5,6]  -5.0027027027027014e-02
    x[6,1]    findWorstP[6,1]  2.1322547920337445e-01
    x[6,1]    findWorstP[6,2]  2.1322547920337445e-01
    x[6,1]    findWorstP[6,3]  2.1322547920337445e-01
    x[6,1]    findWorstP[6,4]  2.1322547920337445e-01
    x[6,1]    findWorstP[6,5]  2.1322547920337445e-01
    x[6,2]    allocateEach[2]  1
    x[6,2]    findWorstP[1,6]  -2.2532790166482206e-01
    x[6,2]    findWorstP[2,6]  -1.9629411764705879e-01
    x[6,2]    findWorstP[3,6]  -1.4409837885853874e-01
    x[6,2]    findWorstP[4,6]  -2.9500115535700527e-01
    x[6,2]    findWorstP[5,6]  -2.3659459459459456e-01
    x[6,2]    findWorstP[6,1]  2.3460942922740138e-01
    x[6,2]    findWorstP[6,2]  2.3460942922740138e-01
    x[6,2]    findWorstP[6,3]  2.3460942922740138e-01
    x[6,2]    findWorstP[6,4]  2.3460942922740138e-01
    x[6,2]    findWorstP[6,5]  2.3460942922740138e-01
    x[6,3]    allocateEach[3]  1
    x[6,3]    findWorstP[1,6]  -2.3057903784114722e-01
    x[6,3]    findWorstP[2,6]  -1.9464705882352940e-01
    x[6,3]    findWorstP[3,6]  -1.3313346657783698e-01
    x[6,3]    findWorstP[4,6]  -1.0756373719479317e-01
    x[6,3]    findWorstP[5,6]  -1.7518918918918916e-01
    x[6,3]    findWorstP[6,1]  1.9787495328100807e-01
    x[6,3]    findWorstP[6,2]  1.9787495328100807e-01
    x[6,3]    findWorstP[6,3]  1.9787495328100807e-01
    x[6,3]    findWorstP[6,4]  1.9787495328100807e-01
    x[6,3]    findWorstP[6,5]  1.9787495328100807e-01
    x[6,4]    allocateEach[4]  1
    x[6,4]    findWorstP[1,6]  -1.8473167400569851e-01
    x[6,4]    findWorstP[2,6]  -5.5441176470588230e-02
    x[6,4]    findWorstP[3,6]  -2.3889629136131466e-01
    x[6,4]    findWorstP[4,6]  -2.0969729646460752e-01
    x[6,4]    findWorstP[5,6]  -2.6791891891891889e-01
    x[6,4]    findWorstP[6,1]  0.0873244700731486
    x[6,4]    findWorstP[6,2]  0.0873244700731486
    x[6,4]    findWorstP[6,3]  0.0873244700731486
    x[6,4]    findWorstP[6,4]  0.0873244700731486
    x[6,4]    findWorstP[6,5]  0.0873244700731486
    MARKER    'MARKER'                 'INTEND'
RHS
    RHS1      allocateEach[1]  1
    RHS1      allocateEach[2]  1
    RHS1      allocateEach[3]  1
    RHS1      allocateEach[4]  1
    RHS1      allocateAllCash  1
BOUNDS
 UP BND1      z         1
 MI BND1      cashProportion[1]
 UP BND1      cashProportion[1]  1
 MI BND1      cashProportion[2]
 UP BND1      cashProportion[2]  1
 MI BND1      cashProportion[3]
 UP BND1      cashProportion[3]  1
 MI BND1      cashProportion[4]
 UP BND1      cashProportion[4]  1
 MI BND1      cashProportion[5]
 UP BND1      cashProportion[5]  1
 MI BND1      cashProportion[6]
 UP BND1      cashProportion[6]  1
 BV BND1      x[1,1]  
 BV BND1      x[1,2]  
 BV BND1      x[1,3]  
 BV BND1      x[1,4]  
 BV BND1      x[2,1]  
 BV BND1      x[2,2]  
 BV BND1      x[2,3]  
 BV BND1      x[2,4]  
 BV BND1      x[3,1]  
 BV BND1      x[3,2]  
 BV BND1      x[3,3]  
 BV BND1      x[3,4]  
 BV BND1      x[4,1]  
 BV BND1      x[4,2]  
 BV BND1      x[4,3]  
 BV BND1      x[4,4]  
 BV BND1      x[5,1]  
 BV BND1      x[5,2]  
 BV BND1      x[5,3]  
 BV BND1      x[5,4]  
 BV BND1      x[6,1]  
 BV BND1      x[6,2]  
 BV BND1      x[6,3]  
 BV BND1      x[6,4]  
ENDATA
